% File represents an instance of a Composite Structure problem to be solved by a CP framework
% Created on 2025-03-26 10:41:19.129
T = 54;
n = 9;
m = 12;
edges = [(1, 2),
(5, 4),
(8, 7),
(2, 3),
(5, 6),
(8, 9),
(1, 4),
(4, 7),
(5, 2),
(8, 5),
(6, 3),
(9, 6)];
counts = [|12, 8, 12, 20,
|12, 6, 12, 16,
|12, 6, 12, 14,
|12, 6, 12, 20,
|12, 6, 12, 22,
|12, 6, 12, 18,
|12, 6, 12, 18,
|12, 8, 12, 22,
|12, 6, 12, 22|];
